StudentsNr = 10;
InstructorsNr = 22;
DaysNr = 2;
SlotsPerDay = 40;
AvailabilitySlotsLenght = 10;
RoomNr = 2;
ProgrammNr = 2;
DegreeNr = 1;
RolesNr = 2;
CoursesNr = 8;
InstructorsProgramm = [{1}, {1}, {1}, {1, 2}, {1}, {1, 2}, {1}, {2}, {1, 2}, {2}, {1}, {1}, {1}, {1}, {2}, {1, 2}, {1, 2}, {1, 2}, {1, 2}, {2}, {2}, {2}];
InstructorRolesPerProgramm = [|{2, 7, 9, 14, 16, 17}, {1, 5, 7, 9, 12, 14, 16, 17}|{9, 10, 16, 17, 21}, {8, 9, 15, 16, 17, 20, 21}|];
InstructorsAvailability = [|1, 0, 0, 1, 1, 1, 1, 1, |1, 1, 0, 0, 0, 0, 0, 1, |0, 0, 1, 1, 1, 1, 1, 1, |0, 1, 1, 1, 1, 1, 1, 1, |1, 1, 1, 1, 1, 1, 1, 1, |0, 0, 0, 0, 1, 1, 1, 1, |1, 1, 1, 1, 1, 1, 1, 1, |0, 1, 1, 1, 0, 1, 0, 1, |0, 1, 1, 1, 1, 0, 1, 1, |0, 1, 1, 0, 1, 1, 1, 0, |1, 1, 1, 1, 1, 1, 1, 1, |1, 1, 1, 1, 1, 1, 1, 1, |1, 0, 0, 1, 1, 1, 1, 1, |0, 0, 1, 1, 1, 1, 1, 1, |1, 1, 1, 1, 1, 1, 1, 1, |1, 0, 1, 1, 1, 1, 1, 0, |1, 1, 1, 1, 1, 1, 0, 1, |1, 1, 1, 1, 1, 1, 1, 1, |0, 1, 1, 1, 1, 1, 1, 0, |0, 1, 1, 1, 0, 1, 1, 1, |0, 1, 1, 0, 1, 1, 0, 1, |1, 0, 0, 0, 0, 1, 1, 0|];
StudentsProgramm = [1, 1, 2, 1, 2, 2, 2, 1, 2, 1];
StudentsDegree = [1, 1, 1, 1, 1, 1, 1, 1, 1, 1];
StudentsSupervisorId = [5, 6, 18, 16, 22, 9, 22, 17, 18, 4];
StudentsCourseIds = [{1, 2, 3, 4, 5, 6, 7, 8}, {1, 2, 3, 4, 5, 6, 7, 8}, {1, 2, 3, 4, 5, 6, 7, 8}, {1, 2, 3, 4, 5, 6, 7, 8}, {1, 2, 3, 4, 5, 6, 7, 8}, {1, 2, 3, 4, 5, 6, 7, 8}, {1, 2, 3, 4, 5, 6, 7, 8}, {1, 2, 3, 4, 5, 6, 7, 8}, {1, 2, 3, 4, 5, 6, 7, 8}, {1, 2, 3, 4, 5, 6, 7, 8}];
StudentsAvailability = [|0, 1, 0, 0, 1, 1, 1, 1, |0, 1, 1, 1, 1, 0, 0, 0, |1, 1, 1, 1, 1, 1, 1, 0, |1, 1, 1, 1, 1, 0, 1, 1, |1, 1, 1, 1, 1, 1, 1, 1, |0, 1, 0, 1, 1, 1, 1, 1, |1, 1, 1, 1, 1, 1, 1, 1, |0, 0, 0, 0, 0, 1, 1, 1, |1, 1, 1, 1, 1, 1, 1, 1, |1, 1, 1, 0, 1, 1, 1, 1|];
TheoryticalMinCard = [1, 1, 1, 1, 1, 1, 1, 1, 1, 1];
CoursesInstructorIds = [{3, 9, 14, 15, 21}, {2, 5, 6, 7, 9, 10, 12, 13, 16, 17, 18, 19, 21}, {3, 5, 8, 9, 11, 12, 15, 16, 17, 18, 20, 21, 22}, {5, 17, 19, 21}, {4}, {1, 3, 5, 6, 8, 12, 16, 20}, {1, 3, 4, 5, 7, 8, 9, 10, 12, 13, 14, 15, 18, 19, 21, 22}, {1, 2, 3, 6, 8, 10, 11, 13, 14, 15, 17, 22}];
RolesDemands = [4, 3];
RolesContinuity = [];
ExamLen = [2, 2, 2, 2, 2, 2, 2, 2, 2, 2];
LunchTsMinLen = 0;
LunchStarts = [12..26, 59..64];
SupervisorAvailable = 0;
OptimalLunchLenght = [1, 0];
OptimalStartTs = [1, 0];
OptimalFinishTs = [0, 39];
MinimizeRooms = 400;
RolesSoftContinuity = [|1, 2|2, 2|];
SameDegreeInRoom = 10;
Mergeability = 1;
